148
100
57
51
16
20
75
4
51
20
63
25
43
41
58
18
27
13
26
12
1
4
17
56
32
75
20
6
57
15
12
62
13
42
10
44
22
28
4
1
30
73
35
42
36
4
48
22
57
30
36
61
33
19
73
13
1
15
4
21
69
34
18
46
10
39
62
12
64
28
45
43
42
32
19
33
31
10
7
40
1
8
50
61
28
43
4
21
23
60
25
6
14
6
32
12
38
5
9
36
11
16
44
59
2
17
59
40
5
60
41
12
12
4
24
48
37
46
45
37
28
30
68
39
35
7
41
18
25
43
1
11
63
41
25
56
23
24
36
22
8
9
1
66
44
38
45
57
16
1
